experiments/eusolverbv/8/DirectTrainGenes/11100101100111011011001001100000110001100001/69_.out
(define-fun f ((x (BitVec 64))) (BitVec 64)
     (if0 (bvnot x) (func57 x (func37 #x0000000000000000 x)) (if0 (func29 x #x0000000000000000) (func37 #x0000000000000000 (shl1 x)) (func57 x (func37 #x0000000000000001 (bvnot x))))))
5.37986908107996
